# ---------- Initialize Simulation ---------------------
units metal                                        #sets the style of units used in the simulation
dimension 3                                        # dimension of the simulation
boundary p p p                                     # p.b.c.
atom_style full                                  #only the default values(coarse-grain liquids, solids, metals)



# ---------- Create Atoms ---------------------
#Try what can be the analogous input file if Bravais lattice is used (in 2D)

read_data TriG.mol

#group membrane  type 3
#group adsorbate type 1 2
#group membrane  id 8050113:12006176 1 4094049 8050113 12006177:YYY YYY 1 ZZZ 8050113:12006176 1 4094049 8050113 12006177 10271 WWW
#group membrane  id 6051:11882 
#group corner id 1 4094049 8050113
#group adsorbate type 2
variable threshold atom z<16
group membrane variable threshold



#--------------Input data (structure)--------------------------------
#read_data hBN.lammps                                      # either in ASCII text or a gzipped text file(.gz as a suffix)


#Turn on the pairwise and bonded interactions
#Needed for the pair style tersoff
newton on                                 #Turns on both bonded and non-bonded interactions (if two secified: first, for bonded and second is for non-bonded)



# ---------- Define Interatomic Potential ---------------------
#pair_style hybrid/overlay drip rebo
#pair_coeff * * drip  C.drip     C
#pair_coeff * * rebo CH.rebo C
pair_style hybrid/overlay drip rebo extep 
pair_coeff * * drip  C.drip   B N C
pair_coeff * * rebo  CH.rebo  NULL NULL C 
pair_coeff  * * extep BN.extep  B  N NULL # chemical
#

neighbor 2 bin                                      # Every few time steps rebuild the neighbor list (skin thickness) , binning
neigh_modify every 10 delay 0 check yes                # Checks every time steps (whether any atom has gone beyond)
#neighbor        2.0 bin
#neigh_modify    every 1
#neigh_modify    delay 0
#neigh_modify    check yes

# calculate the COM
variable        adsxcom equal xcm(adsorbate,x)
variable        adsycom equal xcm(adsorbate,y)
variable        adszcom equal xcm(adsorbate,z)
variable        adsvxcom equal vcm(adsorbate,x)
variable        adsvycom equal vcm(adsorbate,y)
variable        adsvzcom equal vcm(adsorbate,z)

#### Simulation settings ####
timestep  0.001
#velocity  adsorbate create 300.0 12345
fix       subf membrane setforce 0.0 0.0 0.0
#fix       subf2 corner setforce 0.0 0.0 NULL
#fix       thermostat all nve

compute   0 all pair rebo
compute   1 all pair drip
variable  REBO     equal c_0
variable  ILP      equal c_1

############################

# Output
thermo          100
thermo_style    custom step etotal pe ke v_REBO v_ILP temp v_adsxcom v_adsycom v_adszcom v_adsvxcom v_adsvycom v_adsvzcom
thermo_modify   line one format float %.10f
thermo_modify   flush yes norm no lost warn

#write_dump all atom dump_relaxExp.Before

compute eng all pe/atom
compute eatoms all reduce sum c_eng

# ---------- Run Minimization ---------------------
reset_timestep 0
 # # fix 1 all box/relax iso 0.0 vmax 0.00
thermo 10
thermo_style custom step pe lx ly lz press pxx pyy pzz c_eatoms
min_style cg
#dump            1 all custom 1  dump.relax.* id type mass xu yu z
#dump dumpMovie all movie 10 movie.avi type type size 640 480
#
dump 2 all custom 100 dump.minimization id type x y z ix iy iz 
dump_modify 2 format float %20.15g sort id
minimize          0.0 1.0e-5 500000 500000
#
#running the simulation
print "All done!"
